NAME: n500q25A.tsp, 500 nodes, semilla 0
COMMENT: Problema aleatorio de norma euclidea
DIMENSION: 500
CAPACITY: 25
EDGE_WEIGHT_TYPE: EUC_2D
NODE_COORD_SECTION
1   0.0000   0.0000
2 220.0000 -461.0000
3 -62.0000 -261.0000
4 298.0000 356.0000
5 -214.0000 -134.0000
6 113.0000 -49.0000
7 -399.0000 354.0000
8 -218.0000 -357.0000
9 422.0000  38.0000
10 -214.0000 446.0000
11 181.0000 498.0000
12 392.0000 477.0000
13 407.0000 156.0000
14 -176.0000 -42.0000
15 -259.0000 382.0000
16 -221.0000 226.0000
17  91.0000 -53.0000
18  88.0000 341.0000
19 -262.0000 408.0000
20 118.0000 112.0000
21 368.0000 -43.0000
22 379.0000  34.0000
23 388.0000 -276.0000
24  85.0000  98.0000
25 -388.0000 -287.0000
26 -433.0000  79.0000
27 -95.0000 130.0000
28   6.0000 -220.0000
29 150.0000 -111.0000
30 -323.0000 -170.0000
31 -235.0000 -168.0000
32 -363.0000 -385.0000
33 -397.0000 429.0000
34 -95.0000 153.0000
35 357.0000 -162.0000
36 273.0000  99.0000
37 -286.0000 -402.0000
38 204.0000 184.0000
39 443.0000 -239.0000
40 -124.0000 248.0000
41 -495.0000 372.0000
42 -347.0000 174.0000
43   5.0000 320.0000
44 -313.0000 -260.0000
45 438.0000 305.0000
46 -164.0000 -476.0000
47 -106.0000  34.0000
48  75.0000 -479.0000
49 462.0000 484.0000
50 -434.0000 125.0000
51 331.0000  70.0000
52 -263.0000 -332.0000
53 137.0000 -250.0000
54 228.0000 120.0000
55 -176.0000 201.0000
56 275.0000 423.0000
57 -437.0000 312.0000
58 -308.0000  66.0000
59 248.0000 -380.0000
60 121.0000 -449.0000
61 469.0000 -165.0000
62  78.0000  25.0000
63  32.0000 -453.0000
64 -227.0000 -41.0000
65 -365.0000  31.0000
66 -64.0000  82.0000
67 -339.0000 168.0000
68 143.0000 315.0000
69  28.0000 477.0000
70 -405.0000 324.0000
71 -255.0000 269.0000
72 -478.0000 325.0000
73 -203.0000 308.0000
74 -236.0000 227.0000
75 -437.0000 141.0000
76 -419.0000 -452.0000
77 -171.0000 248.0000
78 -316.0000 -386.0000
79 244.0000 260.0000
80  -5.0000 392.0000
81 -366.0000 -138.0000
82 152.0000  73.0000
83 -29.0000 -245.0000
84 475.0000 -480.0000
85 323.0000 322.0000
86 -47.0000 411.0000
87 -343.0000 -251.0000
88 -24.0000 412.0000
89 220.0000 -63.0000
90 -244.0000 -111.0000
91 341.0000 -52.0000
92  -6.0000 355.0000
93 342.0000 256.0000
94 -332.0000 -295.0000
95  57.0000 317.0000
96 428.0000 -498.0000
97  52.0000 -285.0000
98 -220.0000 -416.0000
99 347.0000 175.0000
100 300.0000 -485.0000
101  38.0000 166.0000
102 453.0000  61.0000
103 -139.0000 376.0000
104 351.0000 -413.0000
105 234.0000  23.0000
106 -242.0000 -44.0000
107 -402.0000 -31.0000
108 -358.0000 276.0000
109 -322.0000 441.0000
110 -218.0000 244.0000
111 -377.0000 117.0000
112 113.0000 -352.0000
113  24.0000 -108.0000
114 196.0000 -367.0000
115 -193.0000 -434.0000
116 380.0000 -324.0000
117 -266.0000 -472.0000
118 448.0000 -446.0000
119 -337.0000 -17.0000
120 245.0000 202.0000
121 246.0000 -43.0000
122 360.0000  92.0000
123 -186.0000 315.0000
124 155.0000 295.0000
125 -481.0000 -434.0000
126 284.0000  78.0000
127  95.0000 389.0000
128 -94.0000 -291.0000
129  -2.0000 177.0000
130 -22.0000 -165.0000
131 -474.0000 -379.0000
132 -247.0000 131.0000
133 -254.0000 -127.0000
134 -438.0000 467.0000
135 -10.0000 -342.0000
136 -389.0000 360.0000
137 441.0000  76.0000
138 427.0000 -135.0000
139 398.0000 194.0000
140 -410.0000 -84.0000
141 161.0000 493.0000
142 397.0000 -418.0000
143 480.0000 -188.0000
144 -145.0000 479.0000
145 199.0000 459.0000
146 204.0000 -363.0000
147 144.0000 -241.0000
148 -116.0000 224.0000
149  27.0000 304.0000
150 -309.0000 -490.0000
151   3.0000 -24.0000
152 -248.0000  79.0000
153 385.0000 355.0000
154 255.0000 -397.0000
155 453.0000 -464.0000
156 283.0000 -445.0000
157 138.0000 -201.0000
158 -384.0000 -498.0000
159  18.0000 -373.0000
160 -176.0000 -267.0000
161 466.0000  33.0000
162 227.0000  89.0000
163 -306.0000 -46.0000
164 -411.0000 -21.0000
165 -232.0000  30.0000
166 395.0000 228.0000
167 253.0000  73.0000
168 -138.0000 358.0000
169 120.0000 411.0000
170 411.0000 307.0000
171 -292.0000 -406.0000
172  -6.0000 -387.0000
173 -164.0000 -373.0000
174 406.0000 413.0000
175 341.0000 -135.0000
176 -436.0000 -73.0000
177 111.0000 -163.0000
178 -169.0000 302.0000
179 -97.0000 438.0000
180 -428.0000 -364.0000
181   9.0000 202.0000
182  41.0000 -307.0000
183 220.0000 110.0000
184  19.0000 181.0000
185 302.0000 499.0000
186 -263.0000 -265.0000
187 122.0000 -422.0000
188 371.0000 -296.0000
189 -50.0000 -398.0000
190 -497.0000 -277.0000
191  82.0000 -185.0000
192 180.0000  37.0000
193  62.0000 212.0000
194 -160.0000 -12.0000
195 196.0000 -300.0000
196 352.0000 188.0000
197 -434.0000 -386.0000
198 -33.0000 -350.0000
199  80.0000 -265.0000
200 -112.0000 444.0000
201 -407.0000  52.0000
202  39.0000  17.0000
203 -185.0000 -208.0000
204 109.0000 -107.0000
205 185.0000 451.0000
206 -158.0000 -96.0000
207 192.0000 252.0000
208 433.0000 -48.0000
209 -208.0000 -88.0000
210 -186.0000 459.0000
211 155.0000 324.0000
212 106.0000 -463.0000
213 -432.0000 -305.0000
214 243.0000 -399.0000
215 -294.0000 155.0000
216 485.0000 -204.0000
217 -493.0000 142.0000
218  94.0000 -121.0000
219 -397.0000 260.0000
220  97.0000 461.0000
221  92.0000 -457.0000
222 401.0000 -204.0000
223 160.0000  49.0000
224 -104.0000 -226.0000
225 -452.0000 -439.0000
226 280.0000 323.0000
227 -474.0000 309.0000
228 362.0000 -427.0000
229 222.0000 -481.0000
230 446.0000 420.0000
231 361.0000 -397.0000
232 250.0000 -437.0000
233 100.0000 -288.0000
234 182.0000 -117.0000
235 463.0000 -435.0000
236 271.0000 134.0000
237 -233.0000 421.0000
238 122.0000  71.0000
239 328.0000  30.0000
240 -196.0000 -408.0000
241 -341.0000 -273.0000
242  40.0000 -212.0000
243 285.0000 -480.0000
244 -464.0000 398.0000
245 280.0000 334.0000
246 -345.0000 345.0000
247   6.0000 -201.0000
248 207.0000 -174.0000
249 434.0000 -118.0000
250 -377.0000 115.0000
251 298.0000 -453.0000
252 223.0000 -374.0000
253 -150.0000 270.0000
254 -82.0000 465.0000
255 -494.0000 -422.0000
256 -28.0000 174.0000
257 -468.0000 312.0000
258 -140.0000 198.0000
259 -202.0000 308.0000
260 164.0000 -202.0000
261 -497.0000 491.0000
262 -80.0000 378.0000
263 295.0000 253.0000
264 -37.0000 -191.0000
265 191.0000 414.0000
266 400.0000 105.0000
267 -292.0000 303.0000
268 -335.0000  95.0000
269 -474.0000 -86.0000
270 -259.0000  82.0000
271 -338.0000 102.0000
272 103.0000  41.0000
273 -185.0000 167.0000
274  13.0000 -343.0000
275 131.0000 282.0000
276 -170.0000 307.0000
277 265.0000  55.0000
278 -209.0000 190.0000
279 278.0000  40.0000
280 320.0000  25.0000
281 -173.0000 473.0000
282  74.0000 372.0000
283 453.0000 489.0000
284 -340.0000 151.0000
285  58.0000 -416.0000
286 -257.0000 322.0000
287  -6.0000 -199.0000
288  22.0000 -145.0000
289   4.0000  10.0000
290 -494.0000 405.0000
291 -492.0000 -391.0000
292 -155.0000 143.0000
293 489.0000 194.0000
294 -211.0000 213.0000
295 467.0000 182.0000
296 -108.0000 -336.0000
297 108.0000 -130.0000
298 101.0000 -429.0000
299 -242.0000  16.0000
300 161.0000 153.0000
301  22.0000 385.0000
302 348.0000 -278.0000
303 -440.0000 -172.0000
304 -327.0000 338.0000
305 -92.0000 -494.0000
306 -147.0000 -253.0000
307  79.0000 -286.0000
308  34.0000 273.0000
309 -132.0000 -53.0000
310 242.0000  14.0000
311 300.0000 -200.0000
312 -352.0000 -168.0000
313 348.0000 283.0000
314 281.0000 424.0000
315 239.0000 -179.0000
316 -64.0000 373.0000
317 -229.0000 132.0000
318 -53.0000 344.0000
319 -120.0000 430.0000
320 352.0000 -416.0000
321 342.0000 -346.0000
322 300.0000 353.0000
323 230.0000 277.0000
324 413.0000 -191.0000
325 412.0000 -166.0000
326 374.0000 227.0000
327 379.0000 -267.0000
328 -21.0000 -312.0000
329 170.0000 336.0000
330  78.0000  18.0000
331 206.0000  95.0000
332 -55.0000 -166.0000
333 -32.0000 210.0000
334 205.0000 389.0000
335 168.0000 112.0000
336 -293.0000 -325.0000
337 -262.0000 -370.0000
338 -168.0000 -343.0000
339 -32.0000 -463.0000
340 -418.0000 383.0000
341 208.0000 -288.0000
342 -247.0000 315.0000
343 232.0000 -386.0000
344  95.0000 -233.0000
345 -489.0000 294.0000
346 228.0000 -31.0000
347 133.0000 -409.0000
348 -36.0000 242.0000
349 358.0000 -54.0000
350 -478.0000 122.0000
351  34.0000 -366.0000
352 -191.0000 442.0000
353 -463.0000 -444.0000
354 -63.0000 -471.0000
355 230.0000 222.0000
356 261.0000 307.0000
357 -111.0000 -155.0000
358 -158.0000 110.0000
359  81.0000  98.0000
360 -142.0000 359.0000
361 -150.0000 293.0000
362 -30.0000 -203.0000
363 -277.0000 316.0000
364 -343.0000 -484.0000
365 -309.0000  77.0000
366 498.0000 -363.0000
367 -450.0000 -221.0000
368 -453.0000 -372.0000
369 258.0000 350.0000
370  71.0000 -165.0000
371 183.0000 -378.0000
372 -479.0000 109.0000
373 -138.0000 136.0000
374 -318.0000 -28.0000
375 -152.0000 -366.0000
376 -51.0000 199.0000
377 -21.0000 -356.0000
378 -487.0000 -450.0000
379  73.0000 -465.0000
380 271.0000 -440.0000
381 -199.0000 211.0000
382   4.0000 -368.0000
383 -286.0000 123.0000
384 -71.0000 -37.0000
385 -35.0000 412.0000
386 -270.0000 341.0000
387 -381.0000 -489.0000
388 -141.0000 301.0000
389 -385.0000 434.0000
390 -255.0000 -66.0000
391 -156.0000 389.0000
392 240.0000   7.0000
393 234.0000 -237.0000
394 337.0000 -355.0000
395 437.0000 304.0000
396 -289.0000 -42.0000
397 367.0000 131.0000
398 -46.0000 -366.0000
399 -80.0000 500.0000
400 -381.0000 -378.0000
401 267.0000 -217.0000
402 -159.0000 113.0000
403 -206.0000 -311.0000
404 -181.0000  75.0000
405 -284.0000 458.0000
406 -457.0000 250.0000
407 310.0000 -372.0000
408 -349.0000 182.0000
409 264.0000 -452.0000
410 122.0000 328.0000
411 -462.0000 -298.0000
412   1.0000  47.0000
413 -226.0000 -275.0000
414 154.0000 235.0000
415 -209.0000 299.0000
416 -135.0000  -3.0000
417 -149.0000 -394.0000
418 -395.0000 -186.0000
419 125.0000 285.0000
420 -167.0000 -393.0000
421 -26.0000  33.0000
422  20.0000 385.0000
423 -283.0000 335.0000
424 -243.0000 110.0000
425  28.0000 -308.0000
426 -181.0000 448.0000
427 253.0000 -166.0000
428 -19.0000  73.0000
429 325.0000  59.0000
430 -11.0000 394.0000
431 344.0000 -133.0000
432 266.0000 -304.0000
433 181.0000 203.0000
434 494.0000 -60.0000
435 -277.0000 378.0000
436 -243.0000 -479.0000
437 -188.0000 -305.0000
438 -73.0000  27.0000
439 161.0000 -483.0000
440 488.0000 -377.0000
441  30.0000 374.0000
442 -114.0000 381.0000
443 -72.0000  59.0000
444 -318.0000 269.0000
445  28.0000 -398.0000
446 275.0000 369.0000
447 -479.0000 -358.0000
448 -153.0000 -457.0000
449 -431.0000 299.0000
450 412.0000 -413.0000
451 -140.0000 -391.0000
452 -42.0000 -110.0000
453 430.0000 -381.0000
454 450.0000 -463.0000
455 202.0000 -258.0000
456 -110.0000 -233.0000
457  87.0000 -128.0000
458 -23.0000 408.0000
459 298.0000 -470.0000
460 186.0000  84.0000
461 -492.0000 237.0000
462 -132.0000 319.0000
463 -267.0000 -448.0000
464 -319.0000  42.0000
465 336.0000 264.0000
466 303.0000 -86.0000
467 -495.0000 -126.0000
468 -234.0000 -232.0000
469 341.0000 -147.0000
470 -421.0000  33.0000
471 -439.0000 -164.0000
472 364.0000  39.0000
473 -442.0000 -358.0000
474 -211.0000 -129.0000
475  27.0000 422.0000
476 227.0000 180.0000
477 -69.0000 -54.0000
478 -409.0000 164.0000
479 -455.0000 -218.0000
480  29.0000 217.0000
481 113.0000 106.0000
482  78.0000 -317.0000
483 -447.0000 396.0000
484 323.0000 -339.0000
485 -400.0000  87.0000
486 -261.0000 309.0000
487 -115.0000 -123.0000
488 -266.0000 151.0000
489 347.0000 245.0000
490 218.0000 180.0000
491 244.0000 -64.0000
492 -106.0000 -97.0000
493  12.0000 -111.0000
494 238.0000 -40.0000
495 -81.0000 -156.0000
496 438.0000 237.0000
497 381.0000 241.0000
498 154.0000 486.0000
499 -172.0000 -416.0000
500 430.0000  55.0000
DISPLAY_DATA_SECTION:
 1  250  250
 2  360   19
 3  219  119
 4  399  428
 5  143  183
 6  306  225
 7   50  427
 8  141   71
 9  461  269
10  143  473
11  340  499
12  446  488
13  453  328
14  162  229
15  120  441
16  139  363
17  295  223
18  294  420
19  119  454
20  309  306
21  434  228
22  439  267
23  444  112
24  292  299
25   56  106
26   33  289
27  202  315
28  253  140
29  325  194
30   88  165
31  132  166
32   68   57
33   51  464
34  202  326
35  428  169
36  386  299
37  107   49
38  352  342
39  471  130
40  188  374
41    2  436
42   76  337
43  252  410
44   93  120
45  469  402
46  168   12
47  197  267
48  287   10
49  481  492
50   33  312
51  415  285
52  118   84
53  318  125
54  364  310
55  162  350
56  387  461
57   31  406
58   96  283
59  374   60
60  310   25
61  484  167
62  289  262
63  266   23
64  136  229
65   67  265
66  218  291
67   80  334
68  321  407
69  264  488
70   47  412
71  122  384
72   11  412
73  148  404
74  132  363
75   31  320
76   40   24
77  164  374
78   92   57
79  372  380
80  247  446
81   67  181
82  326  286
83  235  127
84  487   10
85  411  411
86  226  455
87   78  124
88  238  456
89  360  218
90  128  194
91  420  224
92  247  427
93  421  378
94   84  102
95  278  408
96  464    1
97  276  107
98  140   42
99  423  337
100  400    7
101  269  333
102  476  280
103  180  438
104  425   43
105  367  261
106  129  228
107   49  234
108   71  388
109   89  470
110  141  372
111   61  308
112  306   74
113  262  196
114  348   66
115  153   33
116  440   88
117  117   14
118  474   27
119   81  241
120  372  351
121  373  228
122  430  296
123  157  407
124  327  397
125    9   33
126  392  289
127  297  444
128  203  104
129  249  338
130  239  167
131   13   60
132  126  315
133  123  186
134   31  483
135  245   79
136   55  430
137  470  288
138  463  182
139  449  347
140   45  208
141  330  496
142  448   41
143  490  156
144  177  489
145  349  479
146  352   68
147  322  129
148  192  362
149  263  402
150   95    5
151  251  238
152  126  289
153  442  427
154  377   51
155  476   18
156  391   27
157  319  149
158   58    1
159  259   63
160  162  116
161  483  266
162  363  294
163   97  227
164   44  239
165  134  265
166  447  364
167  376  286
168  181  429
169  310  455
170  455  403
171  104   47
172  247   56
173  168   63
174  453  456
175  420  182
176   32  213
177  305  168
178  165  401
179  201  469
180   36   68
181  254  351
182  270   96
183  360  305
184  259  340
185  401  499
186  118  117
187  311   39
188  435  102
189  225   51
190    1  111
191  291  157
192  340  268
193  281  356
194  170  244
195  348  100
196  426  344
197   33   57
198  233   75
199  290  117
200  194  472
201   46  276
202  269  258
203  157  146
204  304  196
205  342  475
206  171  202
207  346  376
208  466  226
209  146  206
210  157  479
211  327  412
212  303   18
213   34   97
214  371   50
215  103  327
216  492  148
217    3  321
218  297  189
219   51  380
220  298  480
221  296   21
222  450  148
223  330  274
224  198  137
225   24   30
226  390  411
227   13  404
228  431   36
229  361    9
230  473  460
231  430   51
232  375   31
233  300  106
234  341  191
235  481   32
236  385  317
237  133  460
238  311  285
239  414  265
240  152   46
241   79  113
242  270  144
243  392   10
244   18  449
245  390  417
246   77  422
247  253  149
248  353  163
249  467  191
250   61  307
251  399   23
252  361   63
253  175  385
254  209  482
255    3   39
256  236  337
257   16  406
258  180  349
259  149  404
260  332  149
261    1  495
262  210  439
263  397  376
264  231  154
265  345  457
266  450  302
267  104  401
268   82  297
269   13  207
270  120  291
271   81  301
272  301  270
273  157  333
274  256   78
275  315  391
276  165  403
277  382  277
278  145  345
279  389  270
280  410  262
281  163  486
282  287  436
283  476  494
284   80  325
285  279   42
286  121  411
287  247  150
288  261  177
289  252  255
290    3  452
291    4   54
292  172  321
293  494  347
294  144  356
295  483  341
296  196   82
297  304  185
298  300   35
299  129  258
300  330  326
301  261  442
302  424  111
303   30  164
304   86  419
305  204    3
306  176  123
307  289  107
308  267  386
309  184  223
310  371  257
311  400  150
312   74  166
313  424  391
314  390  462
315  369  160
316  218  436
317  135  316
318  223  422
319  190  465
320  426   42
321  421   77
322  400  426
323  365  388
324  456  154
325  456  167
326  437  363
327  439  116
328  239   94
329  335  418
330  289  259
331  353  297
332  222  167
333  234  355
334  352  444
335  334  306
336  103   87
337  119   65
338  166   78
339  234   18
340   41  441
341  354  106
342  126  407
343  366   57
344  297  133
345    5  397
346  364  234
347  316   45
348  232  371
349  429  223
350   11  311
351  267   67
352  154  471
353   18   28
354  218   14
355  365  361
356  380  403
357  194  172
358  171  305
359  290  299
360  179  429
361  175  396
362  235  148
363  111  408
364   78    8
365   95  288
366  499   68
367   25  139
368   23   64
369  379  425
370  285  167
371  341   61
372   10  304
373  181  318
374   91  236
375  174   67
376  224  349
377  239   72
378    6   25
379  286   17
380  385   30
381  150  355
382  252   66
383  107  311
384  214  231
385  232  456
386  115  420
387   59    5
388  179  400
389   57  467
390  122  217
391  172  444
392  370  253
393  367  131
394  418   72
395  468  402
396  105  229
397  433  315
398  227   67
399  210  500
400   59   61
401  383  141
402  170  306
403  147   94
404  159  287
405  108  479
406   21  375
407  405   64
408   75  341
409  382   24
410  311  414
411   19  101
412  250  273
413  137  112
414  327  367
415  145  399
416  182  248
417  175   53
418   52  157
419  312  392
420  166   53
421  237  266
422  260  442
423  108  417
424  128  305
425  264   96
426  159  474
427  376  167
428  240  286
429  412  279
430  244  447
431  422  183
432  383   98
433  340  351
434  497  220
435  111  439
436  128   10
437  156   97
438  213  263
439  330    8
440  494   61
441  265  437
442  193  440
443  214  279
444   91  384
445  264   51
446  387  434
447   10   71
448  173   21
449   34  399
450  456   43
451  180   54
452  229  195
453  465   59
454  475   18
455  351  121
456  195  133
457  293  186
458  238  454
459  399   15
460  343  292
461    4  368
462  184  409
463  116   26
464   90  271
465  418  382
466  401  207
467    2  187
468  133  134
469  420  176
470   39  266
471   30  168
472  432  269
473   29   71
474  144  185
475  263  461
476  363  340
477  215  223
478   45  332
479   22  141
480  264  358
481  306  303
482  289   91
483   26  448
484  411   80
485   50  293
486  119  404
487  192  188
488  117  325
489  423  372
490  359  340
491  372  218
492  197  201
493  256  194
494  369  230
495  209  172
496  469  368
497  440  370
498  327  493
499  164   42
500  465  277
DEMAND_SECTION
1 -8
2 1
3 -3
4 -4
5 5
6 5
7 0
8 -4
9 -10
10 -9
11 -5
12 9
13 6
14 -9
15 1
16 1
17 7
18 -6
19 -8
20 4
21 -7
22 9
23 3
24 9
25 -2
26 7
27 3
28 -8
29 -2
30 4
31 0
32 10
33 4
34 10
35 -7
36 -9
37 -9
38 -8
39 -7
40 9
41 7
42 0
43 1
44 -7
45 -5
46 0
47 4
48 -1
49 1
50 10
51 -6
52 10
53 8
54 -8
55 -10
56 7
57 3
58 -9
59 8
60 -8
61 -7
62 -4
63 -2
64 0
65 -6
66 0
67 -8
68 0
69 -8
70 7
71 4
72 1
73 -1
74 -7
75 9
76 -5
77 4
78 10
79 3
80 -1
81 0
82 -5
83 -3
84 -2
85 -8
86 -5
87 -4
88 -2
89 -3
90 0
91 0
92 1
93 8
94 5
95 6
96 0
97 0
98 -4
99 -4
100 -3
101 -3
102 -9
103 7
104 2
105 -2
106 9
107 7
108 -6
109 -4
110 4
111 7
112 4
113 -6
114 1
115 3
116 -7
117 6
118 5
119 -1
120 -7
121 7
122 10
123 3
124 0
125 1
126 1
127 9
128 2
129 9
130 1
131 0
132 3
133 4
134 8
135 6
136 -8
137 9
138 -4
139 -1
140 6
141 -5
142 -2
143 4
144 -2
145 -2
146 4
147 3
148 6
149 4
150 4
151 -6
152 -9
153 -4
154 8
155 9
156 -2
157 -1
158 1
159 6
160 1
161 -3
162 9
163 -8
164 4
165 -3
166 -2
167 -3
168 4
169 -9
170 8
171 3
172 0
173 4
174 0
175 2
176 0
177 6
178 -4
179 -5
180 -4
181 -6
182 -6
183 2
184 3
185 5
186 -9
187 9
188 -8
189 8
190 -6
191 -10
192 8
193 0
194 7
195 0
196 9
197 9
198 2
199 -5
200 4
201 4
202 6
203 9
204 7
205 -8
206 -9
207 -5
208 -7
209 5
210 9
211 4
212 0
213 -10
214 -5
215 4
216 0
217 -9
218 7
219 7
220 5
221 5
222 10
223 0
224 0
225 4
226 10
227 -6
228 2
229 4
230 6
231 -1
232 -7
233 8
234 2
235 8
236 -1
237 -5
238 5
239 4
240 3
241 -4
242 1
243 4
244 -3
245 -4
246 -4
247 -8
248 -2
249 -2
250 8
251 -8
252 0
253 0
254 2
255 0
256 -5
257 7
258 2
259 1
260 -2
261 6
262 0
263 8
264 0
265 10
266 1
267 -1
268 3
269 -1
270 4
271 0
272 -4
273 -7
274 -2
275 6
276 8
277 2
278 -8
279 2
280 -5
281 -1
282 0
283 -7
284 2
285 0
286 5
287 -7
288 2
289 1
290 2
291 -5
292 4
293 8
294 6
295 4
296 3
297 -7
298 -6
299 -6
300 -10
301 -9
302 -10
303 -6
304 5
305 -3
306 -6
307 9
308 2
309 5
310 -7
311 1
312 -1
313 -10
314 -9
315 8
316 -7
317 0
318 -9
319 0
320 -8
321 7
322 6
323 5
324 7
325 -2
326 -10
327 -6
328 4
329 5
330 6
331 -9
332 0
333 -7
334 7
335 -7
336 2
337 -8
338 -9
339 0
340 -9
341 2
342 0
343 9
344 -3
345 6
346 8
347 -6
348 0
349 -10
350 5
351 2
352 7
353 -1
354 5
355 6
356 9
357 5
358 -9
359 -3
360 4
361 3
362 -2
363 6
364 -8
365 5
366 0
367 1
368 -1
369 -2
370 -6
371 -8
372 8
373 5
374 0
375 -4
376 -2
377 1
378 9
379 8
380 -1
381 -9
382 -8
383 -6
384 -1
385 9
386 -1
387 4
388 -4
389 -6
390 5
391 10
392 -5
393 -8
394 7
395 -7
396 -2
397 0
398 1
399 -6
400 -4
401 4
402 0
403 -8
404 2
405 -7
406 5
407 9
408 9
409 -3
410 1
411 -6
412 0
413 1
414 -5
415 -4
416 -4
417 2
418 7
419 -5
420 -2
421 -6
422 2
423 -1
424 -8
425 4
426 7
427 5
428 5
429 -9
430 -3
431 6
432 7
433 -9
434 -8
435 -8
436 4
437 -2
438 -5
439 -7
440 -4
441 -8
442 8
443 3
444 -8
445 -9
446 -6
447 3
448 -5
449 -4
450 -5
451 1
452 -7
453 -9
454 6
455 4
456 -9
457 -3
458 3
459 1
460 -1
461 -5
462 2
463 9
464 0
465 7
466 8
467 8
468 -7
469 -9
470 -1
471 -10
472 4
473 7
474 9
475 -6
476 -10
477 9
478 6
479 3
480 -8
481 9
482 10
483 0
484 0
485 -7
486 3
487 8
488 -9
489 -3
490 2
491 0
492 -5
493 0
494 -7
495 -7
496 -5
497 9
498 -8
499 3
500 7
EOF